GLPSOL: GLPK LP/MIP Solver, v4.55
Parameter(s) specified in the command line:
 -m tmp.mod
Reading model section from tmp.mod...
Reading data section from tmp.mod...
1643 lines were read
Generating obj...
Generating kirhoff...
Generating init_charge...
Generating batt_size...
Model has been successfully generated
GLPK Simplex Optimizer, v4.55
1586 rows, 3104 columns, 6778 non-zeros
Preprocessing...
1473 rows, 2984 columns, 6557 non-zeros
Scaling...
 A: min|aij| =  1.000e+00  max|aij| =  1.000e+00  ratio =  1.000e+00
Problem data seem to be well scaled
Constructing initial basis...
Size of triangular part is 1365
      0: obj =   0.000000000e+00  infeas =  5.930e+02 (108)
*   464: obj =   3.600000000e+01  infeas =  0.000e+00 (59)
*   500: obj =   2.500000000e+01  infeas =  0.000e+00 (59)
*   538: obj =   1.700000000e+01  infeas =  0.000e+00 (58)
OPTIMAL LP SOLUTION FOUND
Time used:   0.1 secs
Memory used: 5.9 Mb (6151815 bytes)
#OUTPUT:
17
-7 0 0 0 -10 -6 0 -5 -5 -4 -2 0 -2 0 1 0 0 0 0 -1 0 0 0 0 0 0 0 0 0 -4 0 10 0 0 1 0 -1 0 0 -5 0 0 -3 0 0 1 0 0 0 0 0 0 0 0 0 -1 0 -5 0 0 0 0 0 0 0 0 0 0 -2 0 1 0 0 0 0 0 0 0 -3 0 0 0 0 0 -3 0 0 0 0 -12 0 -5 0 0 -20 11 -1 -1 0 0 -1 0 5 0 0 0 -3 0 0 -6 -1 1 0 -1 0 0 0 0 0 0 0 
0 0 -1 0 -11 -4 0 -1 0 3 -4 0 1 0 0 0 0 0 0 0 0 0 0 0 0 0 -1 0 -1 0 0 2 0 0 0 0 0 0 0 -1 0 -6 3 0 -10 0 0 0 0 0 0 0 0 1 -5 -6 0 -1 0 0 -1 -6 0 0 0 0 0 0 1 0 1 0 0 0 0 0 0 0 -3 0 0 0 0 0 0 1 0 0 0 -12 0 -1 0 0 -17 15 0 0 0 10 0 0 1 -5 0 0 3 0 0 0 -2 1 0 -6 0 0 0 0 0 0 0 
0 0 0 0 0 0 0 0 0 0 0 0 0 0 0 0 0 0 0 0 0 0 0 0 0 0 0 0 0 0 0 0 0 0 0 0 0 0 0 0 0 0 0 0 0 0 0 0 0 0 0 0 0 0 0 0 0 0 0 0 0 0 0 0 0 0 0 0 0 0 0 0 0 0 0 0 0 0 0 0 0 0 0 0 0 0 0 0 0 0 0 0 0 0 0 0 0 0 0 0 0 0 0 0 0 0 0 0 0 0 0 0 0 0 0 0 0 0 0 0 0 
-5 0 0 0 -19 -2 -2 -7 -5 0 0 0 0 0 1 0 -2 0 1 0 0 0 0 0 0 0 0 0 0 0 0 12 0 0 1 0 0 0 0 -4 0 0 0 -2 -17 -2 0 0 0 0 0 0 2 0 0 0 -3 -7 0 0 0 0 0 0 0 0 0 0 0 0 0 0 0 0 0 0 2 0 0 0 0 0 0 0 0 0 0 2 0 0 0 -5 0 0 -14 0 -1 0 0 0 2 -2 7 0 0 0 0 0 0 0 0 0 -2 0 0 0 0 0 0 0 0 
-1 0 -1 0 -1 -1 0 0 0 0 -1 0 0 0 0 0 0 0 0 0 0 0 0 0 0 0 -1 0 -1 0 0 3 0 0 0 0 0 0 0 0 0 0 0 0 0 0 0 0 0 0 0 0 0 1 -1 0 0 0 0 0 -1 -2 0 0 0 0 0 0 0 0 0 0 0 0 0 0 0 0 0 0 0 0 0 -2 0 1 0 0 0 0 0 0 0 0 -3 0 0 0 0 0 0 0 0 -1 0 0 0 0 0 0 -1 0 0 0 0 0 0 0 0 0 0 
0 0 0 0 0 0 0 -5 0 0 0 0 0 0 0 0 0 0 0 0 0 0 0 0 0 0 0 0 0 0 0 0 0 0 0 0 0 0 0 -5 0 0 0 0 0 -19 0 0 0 0 0 0 0 0 0 0 0 -5 0 0 0 0 0 0 0 0 0 0 0 0 0 -19 0 0 0 0 0 0 0 0 0 0 0 0 0 0 0 0 -15 0 0 -5 0 0 -19 0 0 0 0 0 0 0 5 0 0 0 0 0 0 0 0 0 0 0 0 0 0 0 0 0 0 
0 0 0 0 -7 -7 0 -5 0 0 -7 0 0 0 -1 0 0 0 0 1 0 0 0 0 0 0 0 0 0 0 0 1 0 0 -1 0 0 0 0 -5 0 0 0 0 0 -1 0 0 0 0 0 0 0 0 0 0 0 -5 0 0 0 0 0 0 0 0 0 -13 0 0 0 0 0 0 0 0 0 0 0 0 0 0 0 0 0 0 0 0 0 0 0 -5 0 0 -2 0 1 0 0 0 1 0 5 0 0 0 0 0 0 0 0 0 0 0 0 0 0 0 0 0 0 
0 0 0 0 -4 -4 0 -5 0 0 -4 0 0 0 0 0 0 0 0 0 0 0 0 0 0 0 0 0 0 0 0 0 0 0 0 0 0 0 0 -5 0 0 0 0 0 0 0 0 0 0 0 0 0 0 0 0 0 -5 0 0 0 0 0 0 0 0 0 0 0 0 0 0 0 0 0 0 0 0 0 0 0 0 0 0 0 0 0 0 0 0 0 -5 0 0 0 0 0 0 0 0 0 0 5 0 0 0 0 0 0 0 0 0 0 0 0 0 0 0 0 0 0 
0 0 0 0 1 4 0 0 0 -3 4 0 0 0 0 0 0 0 0 0 0 0 0 0 0 0 0 0 0 0 0 0 0 0 0 0 0 0 0 0 0 0 0 0 0 0 0 0 0 0 0 0 0 0 0 0 0 0 0 0 0 0 0 0 0 0 0 0 0 0 0 0 0 0 0 0 0 0 0 0 0 0 0 0 0 0 0 0 0 0 0 0 0 0 0 0 0 0 0 0 0 0 0 0 0 0 0 0 0 0 0 0 0 0 0 0 0 0 0 0 0 
-2 0 0 0 -15 0 0 -1 0 -4 0 -1 -2 0 0 0 0 0 0 0 0 0 0 0 0 -1 0 0 0 0 0 0 -1 0 0 0 2 0 0 0 0 0 3 0 -10 0 0 0 0 0 0 0 0 0 0 2 0 -1 0 0 0 0 -1 0 0 0 0 0 -2 0 0 0 0 0 0 0 0 0 -1 0 1 0 0 0 -2 0 -10 0 0 -2 0 0 0 0 -3 3 0 2 0 10 0 0 1 0 2 1 3 -1 0 2 0 0 0 2 0 0 0 0 0 0 0 
0 0 0 0 0 0 0 0 0 0 0 0 0 0 0 0 0 0 0 0 0 0 0 0 0 0 0 0 0 0 0 0 0 0 0 0 0 0 0 0 0 0 0 0 0 0 0 0 0 0 0 0 0 0 0 0 0 0 0 0 0 0 0 0 0 0 0 0 0 0 0 0 0 0 0 0 0 0 0 0 0 0 0 0 0 0 0 0 0 0 0 0 0 0 0 0 0 0 0 0 0 0 0 0 0 0 0 0 0 0 0 0 0 0 0 0 0 0 0 0 0 
#OUTPUT END
Model has been successfully processed
